158
10000
1606
8003
6618
2277
3605
3690
2338
750
8879
1382
905
6988
6419
5316
1419
4
4226
7593
8407
8561
618
5049
1914
1374
7723
1439
257
6395
1592
2491
3452
1043
6495
9850
2002
2232
4676
184
2461
3316
9088
7892
365
3
1594
524
1593
2949
1821
6684
1264
4655
1937
3277
3012
8160
9816
1476
1378
9198
3333
24
3614
6280
809
312
9250
8520
3292
1176
3144
3126
8359
2108
4951
6527
3854
1762
648
7998
780
631
2769
1001
7054
1641
4899
361
3467
8238
4200
7014
7379
838
1080
2377
150
8394
19
3720
2858
2621
1659
3912
3005
7002
5797
1480
8999
23
1918
1822
3682
2561
5233
9860
3581
8957
140
605
8626
3665
4231
7142
9968
4989
5210
254
4192
3769
6874
2946
5341
6930
3658
8989
4211
213
2595
9369
1567
912
3021
802
1755
756
32
1974
6821
1011
2289
1540
9395
2042
1393
6667
3022
780
